DIMENSION: 28
EDGE_WEIGHT_TYPE: EXPLICIT
EDGE_WEIGHT_FORMAT: FULL_MATRIX
EDGE_WEIGHT_SECTION:
32767 44 5 4 32767 32767 32767 32767 16 50 32767 48 52 32767 32767 32767 73 32767 32767 60 32767 23 32767 32767 83 32767 14 32767 
44 32767 32767 32767 12 32767 32767 32767 32767 32767 44 41 32767 66 32767 62 35 32767 65 28 23 32767 94 23 32767 6 100 96 
5 32767 32767 45 21 32767 86 32767 32767 59 62 39 32767 32767 32767 32767 2 15 32767 92 32 32767 79 32767 30 32767 45 32767 
4 32767 45 32767 32767 32 32767 46 32767 32767 32767 85 32767 32767 32767 32767 62 32767 43 45 10 32767 39 32767 32767 32767 51 32767 
32767 12 21 32767 32767 32767 32767 80 75 32767 32767 56 45 61 32767 63 85 76 32767 76 32767 32767 72 32767 32767 32767 32767 70 
32767 32767 32767 32 32767 32767 32767 32767 32767 32767 55 32767 51 23 32767 37 53 32767 32767 25 35 32767 32767 32767 78 3 32767 14 
32767 32767 86 32767 32767 32767 32767 16 32767 32767 31 32767 46 32767 32767 32767 32767 32767 51 17 32767 32767 32767 83 32767 32767 32767 72 
32767 32767 32767 46 80 32767 16 32767 32767 85 93 76 32767 21 32767 32767 59 32767 32767 32767 32767 32767 32767 21 32767 20 32767 32767 
16 32767 32767 32767 75 32767 32767 32767 32767 52 32767 32767 83 74 32767 32767 89 32767 32767 32767 32767 80 32767 32767 87 32767 32767 32767 
50 32767 59 32767 32767 32767 32767 85 52 32767 8 32767 32767 32767 32767 32767 32767 32767 32767 32767 32767 32767 18 32767 32767 32767 79 54 
32767 44 62 32767 32767 55 31 93 32767 8 32767 32767 32767 32767 32767 32767 49 32767 21 94 32767 32767 32767 32767 32767 32767 25 32767 
48 41 39 85 56 32767 32767 76 32767 32767 32767 32767 32767 32767 27 75 32767 32767 32767 32767 32767 32767 5 32767 32767 74 32767 65 
52 32767 32767 32767 45 51 46 32767 83 32767 32767 32767 32767 32767 32767 32767 32767 1 28 36 7 32767 32767 31 32767 32767 64 38 
32767 66 32767 32767 61 23 32767 21 74 32767 32767 32767 32767 32767 26 3 32767 32767 8 15 77 36 32767 63 32767 32767 32767 32767 
32767 32767 32767 32767 32767 32767 32767 32767 32767 32767 32767 27 32767 26 32767 32767 32767 32767 32767 71 32767 40 32767 32767 32767 32767 48 20 
32767 62 32767 32767 63 37 32767 32767 32767 32767 32767 75 32767 3 32767 32767 74 32767 2 42 32767 56 19 53 32767 32767 37 32767 
73 35 2 62 85 53 32767 59 89 32767 49 32767 32767 32767 32767 74 32767 32767 32767 23 32767 32767 32767 86 92 32767 17 32767 
32767 32767 15 32767 76 32767 32767 32767 32767 32767 32767 32767 1 32767 32767 32767 32767 32767 18 32767 49 99 32767 79 79 32767 32767 25 
32767 65 32767 43 32767 32767 51 32767 32767 32767 21 32767 28 8 32767 2 32767 18 32767 32767 32767 32767 32767 32767 2 32767 32767 32767 
60 28 92 45 76 25 17 32767 32767 32767 94 32767 36 15 71 42 23 32767 32767 32767 100 32767 32767 85 32767 32767 87 26 
32767 23 32 10 32767 35 32767 32767 32767 32767 32767 32767 7 77 32767 32767 32767 49 32767 100 32767 26 32767 32767 79 32767 3 32767 
23 32767 32767 32767 32767 32767 32767 32767 80 32767 32767 32767 32767 36 40 56 32767 99 32767 32767 26 32767 57 32767 32767 32767 92 15 
32767 94 79 39 72 32767 32767 32767 32767 18 32767 5 32767 32767 32767 19 32767 32767 32767 32767 32767 57 32767 32767 50 50 32767 32767 
32767 23 32767 32767 32767 32767 83 21 32767 32767 32767 32767 31 63 32767 53 86 79 32767 85 32767 32767 32767 32767 13 92 32767 17 
83 32767 30 32767 32767 78 32767 32767 87 32767 32767 32767 32767 32767 32767 32767 92 79 2 32767 79 32767 50 13 32767 32767 32767 75 
32767 6 32767 32767 32767 3 32767 20 32767 32767 32767 74 32767 32767 32767 32767 32767 32767 32767 32767 32767 32767 50 92 32767 32767 32767 32767 
14 100 45 51 32767 32767 32767 32767 32767 79 25 32767 64 32767 48 37 17 32767 32767 87 3 92 32767 32767 32767 32767 32767 11 
32767 96 32767 32767 70 14 72 32767 32767 54 32767 65 38 32767 20 32767 32767 25 32767 26 32767 15 32767 17 75 32767 11 32767 
EOF